50
    1    15     5
    2    16     6
    3    56    46
    4    52    42
    5    56    46
    6    46    36
    7    37    27
    8    42    32
    9    18     8
   10    27    17
   11    25    15
   12    51    41
   13    41    31
   14    29    19
   15    55    45
   16    25    15
   17    53    43
   18    22    12
   19    32    22
   20    52    42
   21    55    45
   22    51    41
   23    39    29
   24    19     9
   25    56    46
   26    51    41
   27    16     6
   28    60    50
   29    38    28
   30    51    41
   31    38    28
   32    54    44
   33    55    45
   34    34    24
   35    48    38
   36    44    34
   37    21    11
   38    42    32
   39    50    40
   40    49    39
   41    37    27
   42    49    39
   43    21    11
   44    45    35
   45    16     6
   46    52    42
   47    24    14
   48    18     8
   49    16     6
   50    45    35
1203
